TCS_Benchmarks/redos_fix/corpus2_output_distinct_189_188_0_0.smt2
(set-logic QF_S)
(declare-const x String)
(assert (str.in.re x (re.inter  (re.++  (re.++  (re.++ (re.+  (re.union (re.range "\u{61}" "\u{66}") (re.range "\u{30}" "\u{39}")) ) (re.*  (str.to.re "\u{20}") ))  (re.++ (re.+  (re.union (re.range "\u{61}" "\u{66}") (re.range "\u{30}" "\u{39}")) ) (re.*  (str.to.re "\u{20}") ))) (re.*  (re.++  (re.++ (re.+  (re.union (re.range "\u{61}" "\u{66}") (re.range "\u{30}" "\u{39}")) ) (re.*  (str.to.re "\u{20}") ))  (re.++ (re.+  (re.union (re.range "\u{61}" "\u{66}") (re.range "\u{30}" "\u{39}")) ) (re.*  (str.to.re "\u{20}") ))) )) (re.+  (re.union (re.range "\u{61}" "\u{66}") (re.range "\u{30}" "\u{39}")) ) )))
(check-sat)
(get-model)