TCS_Benchmarks/redos_fix/corpus2_output_distinct_189_188_0_0.txt
([a-f0-9]+ *){2,}
[a-f0-9]+